analyze/results_flowersnark/final_miplib_symretope_if_extended_generating_set_cpx_v802__settings_final_nosym_norestarts__0__neos-498623.mps.gz.sol
solution status: optimal solution found
objective value:                                 16.6
C1363                                               1 	(obj:0)
C1364                                               1 	(obj:0)
C1370                                               1 	(obj:0)
C1375                                               1 	(obj:0)
C1381                                               1 	(obj:0)
C1385                                               1 	(obj:0)
C1388                                               1 	(obj:0)
C1390                                               1 	(obj:0)
C1396                                               1 	(obj:0)
C1401                                               1 	(obj:0)
C1405                                               1 	(obj:0)
C1424                                               1 	(obj:-1)
C1504                                               1 	(obj:-1)
C1560                                               1 	(obj:-1)
C1650                                               1 	(obj:-1)
C1745                                               1 	(obj:-1)
C1818                                               1 	(obj:-1)
C1872                                               1 	(obj:-1)
C1948                                               1 	(obj:-1)
C2049                                               1 	(obj:-1)
C2291                                               1 	(obj:-1)
C2631                                               1 	(obj:-1)
C3120                                               1 	(obj:-0.9)
C3368                                               1 	(obj:-1)
C3948                                               1 	(obj:-0.9)
C4225                                               1 	(obj:-1)
C4929                                               1 	(obj:-0.9)
C5211                                               1 	(obj:-1)
C5638                                               1 	(obj:-0.9)
C6057                                               1 	(obj:-1)
C6349                                               1 	(obj:-1)
C6621                                               1 	(obj:-1)
C6910                                               1 	(obj:-1)
C7270                                               1 	(obj:-1)
C7343                                               1 	(obj:-0.9)
C7468                                               1 	(obj:-1)
C7527                                               1 	(obj:-1)
C7634                                               1 	(obj:-1)
C7701                                               1 	(obj:-1)
C7883                                               1 	(obj:-1)
C8269                                               1 	(obj:-1)
C8721                                               1 	(obj:-1)
C8864                                               1 	(obj:-1)
C8898                                               1 	(obj:-1)
C8956                                               1 	(obj:-1)
C9021                                               1 	(obj:-0.9)
C9062                                               1 	(obj:-1)
C9108                                               1 	(obj:-1)
C9110                                               1 	(obj:-1)
C9153                                               1 	(obj:-5)
C9199                                               1 	(obj:-5)
C9250                                               1 	(obj:-5)
C9315                                               1 	(obj:-5)
C9395                                               1 	(obj:-5)
C9437                                               1 	(obj:-5)
C9509                                               1 	(obj:-5)
C9562                                               1 	(obj:-5)
C9629                                               1 	(obj:-5)
C9697                                               1 	(obj:-1)
C9736                                               1 	(obj:-1)
C9803                                               1 	(obj:-1)
C1024                                               1 	(obj:0)
C1348                                               2 	(obj:1)
C0016                                               3 	(obj:0)
C0019                                               3 	(obj:0)
C0020                                               1 	(obj:0)
C0021                                               3 	(obj:0)
C0022                                               3 	(obj:0)
C0023                                               3 	(obj:0)
C0025                                               3 	(obj:0)
C0026                                               2 	(obj:0)
C0027                                               3 	(obj:0)
C0028                                               3 	(obj:0)
C0030                                               4 	(obj:0)
C0031                                               2 	(obj:0)
C0032                                               4 	(obj:0)
C0033                                               3 	(obj:0)
C0034                                               3 	(obj:0)
C0036                                               3 	(obj:0)
C0037                                               2 	(obj:0)
C0038                                               2 	(obj:0)
C0040                                               3 	(obj:0)
C0042                                               3 	(obj:0)
C0043                                               3 	(obj:0)
C0044                                               3 	(obj:0)
C0045                                               3 	(obj:0)
C0046                                               3 	(obj:0)
C0048                                               2 	(obj:0)
C0049                                               3 	(obj:0)
C0050                                               2 	(obj:0)
C0051                                               2 	(obj:0)
C0053                                               2 	(obj:0)
C0054                                               2 	(obj:0)
C0055                                               3 	(obj:0)
C0057                                               3 	(obj:0)
C0058                                               1 	(obj:0)
C0074                                               1 	(obj:100)
C0295                                               1 	(obj:0)
