analyze/results_flowersnark/final_miplib_symretope_if_extended_generating_set_cpx_v802__settings_final_nosym_norestarts__0__neos-498623.mps.gz.out
FILENAME:   /home/mcs001/s132664/testsets/IP/miplib2017/neos-498623.mps.gz
SETTINGS:   settings_final_nosym_norestarts
TIMELIMIT:  7200
OUTPUTNAME: final_miplib_symretope_if_extended_generating_set_cpx_v802__settings_final_nosym_norestarts__0__
BINNAME:    bin/sbcs.linux.x86_64.gnu.opt.cpx
BASENAME:   neos-498623.mps.gz
SEED:       0
@01 /home/mcs001/s132664/testsets/IP/miplib2017/neos-498623.mps.gz ===========
@02 neos-498623.mps.gz
@03 1686649233
SCIP version 8.0.2 [precision: 8 byte] [memory: block] [mode: optimized] [LP solver: CPLEX 20.1.0.0] [GitHash: 5f0473c]
Copyright (C) 2002-2022 Konrad-Zuse-Zentrum fuer Informationstechnik Berlin (ZIB)

Symretope propagation methods - (c) Jasper van Doornmalen, Christopher Hojny.
[GitHash: 2fd0484]

reading parameter file <../settings/settings_final_nosym_norestarts.set> ...

Changed settings:
limits/time = 7200
limits/restarts = 0
misc/usesymmetry = 0
constraints/orbisack/sepafreq = -1
constraints/symresack/sepafreq = -1
propagating/symmetry/detectsubgroups = FALSE
propagating/symmetry/usesymretopes = FALSE
propagating/symmetry/relabelsymretopes = 0
propagating/symmetry/ofsymcomptiming = 0
constraints/symretope/sepafreq = -1
constraints/symretope/peek = FALSE


solving problem ...

original problem has 9861 variables (8500 bin, 0 int, 0 impl, 1361 cont) and 2047 constraints
presolving:
(round 1, fast)       93 del vars, 94 del conss, 0 add conss, 67 chg bounds, 8 chg sides, 8 chg coeffs, 0 upgd conss, 0 impls, 1071 clqs
(round 2, fast)       751 del vars, 98 del conss, 0 add conss, 67 chg bounds, 10 chg sides, 10 chg coeffs, 0 upgd conss, 0 impls, 1071 clqs
(round 3, fast)       753 del vars, 98 del conss, 0 add conss, 681 chg bounds, 10 chg sides, 10 chg coeffs, 0 upgd conss, 0 impls, 1071 clqs
(round 4, exhaustive) 753 del vars, 743 del conss, 0 add conss, 681 chg bounds, 579 chg sides, 10 chg coeffs, 0 upgd conss, 0 impls, 1071 clqs
(round 5, fast)       1179 del vars, 743 del conss, 0 add conss, 681 chg bounds, 579 chg sides, 10 chg coeffs, 0 upgd conss, 0 impls, 1071 clqs
(round 6, exhaustive) 1179 del vars, 743 del conss, 0 add conss, 681 chg bounds, 579 chg sides, 10 chg coeffs, 970 upgd conss, 0 impls, 1071 clqs
(round 7, medium)     1184 del vars, 747 del conss, 0 add conss, 681 chg bounds, 579 chg sides, 10 chg coeffs, 970 upgd conss, 3 impls, 1070 clqs
   (0.4s) probing: 82/8489 (1.0%) - 0 fixings, 0 aggregations, 4 implications, 0 bound changes
   (0.4s) probing aborted: 50/50 successive totally useless probings
presolving (8 rounds: 8 fast, 4 medium, 3 exhaustive):
 1185 deleted vars, 747 deleted constraints, 0 added constraints, 681 tightened bounds, 0 added holes, 579 changed sides, 10 changed coefficients
 7 implications, 1070 cliques
presolved problem has 8676 variables (8489 bin, 0 int, 187 impl, 0 cont) and 1300 constraints
    966 constraints of type <setppc>
    334 constraints of type <linear>
transformed objective value is always integral (scale: 0.1)
Presolving Time: 0.38

 time | node  | left  |LP iter|LP it/n|mem/heur|mdpt |vars |cons |rows |cuts |sepa|confs|strbr|  dualbound   | primalbound  |  gap   | compl. 
  0.9s|     1 |     0 |   659 |     - |   103M |   0 |8676 |1696 |1300 |   0 |  0 | 395 |   0 | 1.600000e+01 |      --      |    Inf | unknown
o 1.2s|     1 |     0 |  1486 |     - |feaspump|   0 |8676 |1696 |1300 |   0 |  0 | 395 |   0 | 1.600000e+01 | 2.860000e+01 |  78.75%| unknown
  1.7s|     1 |     0 |  1488 |     - |   106M |   0 |8676 |1696 |1301 |   1 |  1 | 395 |   0 | 1.600000e+01 | 2.860000e+01 |  78.75%| unknown
  1.7s|     1 |     0 |  1488 |     - |   106M |   0 |8676 |1696 |1281 |   1 |  1 | 395 |   0 | 1.600000e+01 | 2.860000e+01 |  78.75%| unknown
  1.7s|     1 |     0 |  1494 |     - |   107M |   0 |8676 |1676 |1284 |   4 |  2 | 395 |   0 | 1.600000e+01 | 2.860000e+01 |  78.75%| unknown
  3.4s|     1 |     2 |  6739 |     - |   108M |   0 |8676 |1703 |1284 |   4 |  4 | 425 |  12 | 1.600000e+01 | 2.860000e+01 |  78.75%| unknown
d 9.0s|    18 |    19 | 22512 |1240.9 |fracdivi|  11 |8676 |1673 |1319 |   0 |  1 | 425 |  12 | 1.600000e+01 | 2.060000e+01 |  28.75%| unknown
d16.8s|    93 |    88 | 56067 | 594.0 |pscostdi|  21 |8676 |1670 |1315 |   0 |  1 | 464 |  50 | 1.600000e+01 | 1.960000e+01 |  22.50%|   1.60%
 18.6s|   100 |    95 | 59252 | 584.2 |   147M |  21 |8676 |1644 |1319 | 363 |  1 | 474 |  50 | 1.600000e+01 | 1.960000e+01 |  22.50%|   1.83%
o28.1s|   170 |   160 | 79605 | 462.7 |objpscos|  21 |8676 |1668 |1324 | 741 |  4 | 498 |  50 | 1.600000e+01 | 1.760000e+01 |  10.00%|   4.81%
 31.7s|   200 |   143 | 94257 | 466.5 |   167M |  21 |8676 |1544 |1297 | 756 |  1 | 514 |  50 | 1.600000e+01 | 1.760000e+01 |  10.00%|  18.09%
d35.0s|   237 |    91 |107219 | 448.3 |guideddi|  21 |8676 |1546 |1302 |   0 |  2 | 550 |  50 | 1.625000e+01 | 1.670000e+01 |   2.77%|  31.84%
d35.6s|   256 |    26 |109633 | 424.4 |conflict|  21 |8676 |1488 |1307 |   0 |  2 | 572 |  50 | 1.645833e+01 | 1.660000e+01 |   0.86%|  67.55%
 36.8s|   300 |    23 |111387 | 367.8 |   172M |  21 |8676 |1479 |1298 | 841 |  2 | 572 |  50 | 1.646667e+01 | 1.660000e+01 |   0.81%|  74.08%
 40.3s|   400 |    39 |114957 | 284.6 |   177M |  21 |8676 |1492 |1305 | 990 |  1 | 588 |  50 | 1.646667e+01 | 1.660000e+01 |   0.81%|  75.53%
 time | node  | left  |LP iter|LP it/n|mem/heur|mdpt |vars |cons |rows |cuts |sepa|confs|strbr|  dualbound   | primalbound  |  gap   | compl. 
 43.0s|   500 |    43 |118637 | 234.9 |   178M |  21 |8676 |1496 |1307 |1053 |  0 | 594 |  50 | 1.646667e+01 | 1.660000e+01 |   0.81%|  76.86%
 44.5s|   600 |    45 |121967 | 201.3 |   178M |  21 |8676 |1502 |1309 |1122 |  0 | 601 |  50 | 1.646667e+01 | 1.660000e+01 |   0.81%|  78.46%
 48.0s|   700 |    43 |125442 | 177.4 |   180M |  21 |8676 |1510 |1310 |1281 |  1 | 616 |  50 | 1.649167e+01 | 1.660000e+01 |   0.66%|  79.17%
 49.6s|   800 |    41 |128144 | 158.6 |   181M |  21 |8676 |1548 |1306 |1294 |  1 | 660 |  50 | 1.649167e+01 | 1.660000e+01 |   0.66%|  79.23%
 51.3s|   900 |    37 |131143 | 144.3 |   181M |  21 |8676 |1580 |1310 |1321 |  1 | 708 |  50 | 1.649167e+01 | 1.660000e+01 |   0.66%|  79.37%
 55.2s|  1000 |    18 |135306 | 134.0 |   182M |  21 |8676 |1597 |1305 |1451 |  0 | 734 |  50 | 1.650000e+01 | 1.660000e+01 |   0.61%|  86.36%
 59.4s|  1100 |     7 |140155 | 126.2 |   182M |  21 |8676 |1592 |1308 |1750 |  0 | 739 |  50 | 1.650000e+01 | 1.660000e+01 |   0.61%|  94.67%

SCIP Status        : problem is solved [optimal solution found]
Solving Time (sec) : 60.10
Solving Nodes      : 1117
Primal Bound       : +1.66000000000000e+01 (9 solutions)
Dual Bound         : +1.66000000000000e+01
Gap                : 0.00 %
SCIP Status        : problem is solved [optimal solution found]
Total Time         :      60.21
  solving          :      60.10
  presolving       :       0.38 (included in solving)
  reading          :       0.12
  copying          :       1.24 (49 #copies) (minimal 0.02, maximal 0.03, average 0.03)
Original Problem   :
  Problem name     : neos-498623
  Variables        : 9861 (8500 binary, 0 integer, 0 implicit integer, 1361 continuous)
  Constraints      : 2047 initial, 2047 maximal
  Objective        : minimize, 8557 non-zeros (abs.min = 0.7, abs.max = 100)
Presolved Problem  :
  Problem name     : t_neos-498623
  Variables        : 8676 (8489 binary, 0 integer, 187 implicit integer, 0 continuous)
  Constraints      : 1300 initial, 1703 maximal
  Objective        : minimize, 7697 non-zeros (abs.min = 1, abs.max = 1003)
  Nonzeros         : 126972 constraint, 47509 clique table
Presolvers         :   ExecTime  SetupTime  Calls  FixedVars   AggrVars   ChgTypes  ChgBounds   AddHoles    DelCons    AddCons   ChgSides   ChgCoefs
  boundshift       :       0.00       0.00      0          0          0          0          0          0          0          0          0          0
  convertinttobin  :       0.00       0.00      0          0          0          0          0          0          0          0          0          0
  domcol           :       0.05       0.00      1          0          0          0          0          0          0          0          0          0
  dualagg          :       0.00       0.00      0          0          0          0          0          0          0          0          0          0
  dualcomp         :       0.00       0.00      0          0          0          0          0          0          0          0          0          0
  dualinfer        :       0.00       0.00      0          0          0          0          0          0          0          0          0          0
  dualsparsify     :       0.03       0.00      1          0          0          0          0          0          0          0          0          0
  gateextraction   :       0.00       0.00      0          0          0          0          0          0          0          0          0          0
  implics          :       0.00       0.00      4          0          0          0          0          0          0          0          0          0
  inttobinary      :       0.00       0.00      0          0          0          0          0          0          0          0          0          0
  qpkktref         :       0.00       0.00      0          0          0          0          0          0          0          0          0          0
  redvub           :       0.00       0.00      0          0          0          0          0          0          0          0          0          0
  sparsify         :       0.04       0.00      1          0          0          0          0          0          0          0          0          0
  stuffing         :       0.00       0.00      0          0          0          0          0          0          0          0          0          0
  trivial          :       0.00       0.00      8          0          0          0          0          0          0          0          0          0
  tworowbnd        :       0.00       0.00      0          0          0          0          0          0          0          0          0          0
  dualfix          :       0.00       0.00      8       1090          0          0          0          0          0          0          0          0
  genvbounds       :       0.00       0.00      0          0          0          0          0          0          0          0          0          0
  probing          :       0.04       0.00      1          0          0          0          0          0          0          0          0          0
  pseudoobj        :       0.00       0.00      0          0          0          0          0          0          0          0          0          0
  symmetry         :       0.00       0.00      0          0          0          0          0          0          0          0          0          0
  vbounds          :       0.00       0.00      1          0          0          0          0          0          0          0          0          0
  varbound         :       0.00       0.00      2          0          0          0          0          0          3          0          0          0
  knapsack         :       0.00       0.00      0          0          0          0          0          0          0          0          0          0
  setppc           :       0.02       0.00      5          5          0          0          0          0          1          0          0          0
  linear           :       0.16       0.02     11          0         90          0        681          0        743          0        579         10
  logicor          :       0.00       0.00      0          0          0          0          0          0          0          0          0          0
  bounddisjunction :       0.00       0.00      0          0          0          0          0          0          0          0          0          0
  benders          :       0.00       0.00      0          0          0          0          0          0          0          0          0          0
  components       :       0.02       0.00      1          0          0          0          0          0          0          0          0          0
  root node        :          -          -      -       2892          -          -       3640          -          -          -          -          -
Constraints        :     Number  MaxNumber  #Separate #Propagate    #EnfoLP    #EnfoRelax  #EnfoPS    #Check   #ResProp    Cutoffs    DomReds       Cuts    Applied      Conss   Children
  benderslp        :          0          0          0          0        645          0          0         42          0          0          0          0          0          0          0
  integral         :          0          0          0          0        645          0          0         42          0          0          0          0          0          0       1290
  knapsack         :          0+         5          0       6646          0          0          0          0        207         12       6857          0          0          0          0
  setppc           :        966        966          3      18602          0          0          0         36      19641         33      25098          0          0          0          0
  linear           :        334+       345          3      18569          0          0          0          9       1626          9     114184          0          0          0          0
  logicor          :          0+       393          3       1270          0          0          0          0        108         49        148          0          0          0          0
  bounddisjunction :          0+        55          0        393          0          0          0          0          1          2          0          0          0          0          0
  benders          :          0          0          0          0          0          0          0         10          0          0          0          0          0          0          0
  countsols        :          0          0          0          0          0          0          0         10          0          0          0          0          0          0          0
  components       :          0          0          0          0          0          0          0          0          0          0          0          0          0          0          0
Constraint Timings :  TotalTime  SetupTime   Separate  Propagate     EnfoLP     EnfoPS     EnfoRelax   Check    ResProp    SB-Prop
  benderslp        :       0.00       0.00       0.00       0.00       0.00       0.00       0.00       0.00       0.00       0.00
  integral         :       1.17       0.00       0.00       0.00       1.17       0.00       0.00       0.00       0.00       0.00
  knapsack         :       0.03       0.00       0.00       0.03       0.00       0.00       0.00       0.00       0.00       0.00
  setppc           :       0.27       0.00       0.01       0.24       0.00       0.00       0.00       0.00       0.00       0.01
  linear           :       0.35       0.02       0.01       0.32       0.00       0.00       0.00       0.00       0.00       0.00
  logicor          :       0.03       0.00       0.00       0.03       0.00       0.00       0.00       0.00       0.00       0.00
  bounddisjunction :       0.00       0.00       0.00       0.00       0.00       0.00       0.00       0.00       0.00       0.00
  benders          :       0.00       0.00       0.00       0.00       0.00       0.00       0.00       0.00       0.00       0.00
  countsols        :       0.00       0.00       0.00       0.00       0.00       0.00       0.00       0.00       0.00       0.00
  components       :       0.00       0.00       0.00       0.00       0.00       0.00       0.00       0.00       0.00       0.00
Propagators        : #Propagate   #ResProp    Cutoffs    DomReds
  dualfix          :          2          0          0          0
  genvbounds       :          0          0          0          0
  nlobbt           :          0          0          0          0
  obbt             :          0          0          0          0
  probing          :          0          0          0          0
  pseudoobj        :       2973          0          0          0
  redcost          :       1809          0          0      83610
  rootredcost      :          6          0          0       2855
  symmetry         :          0          0          0          0
  vbounds          :       1723          0          0          0
Propagator Timings :  TotalTime  SetupTime   Presolve  Propagate    ResProp    SB-Prop
  dualfix          :       0.00       0.00       0.00       0.00       0.00       0.00
  genvbounds       :       0.00       0.00       0.00       0.00       0.00       0.00
  nlobbt           :       0.00       0.00       0.00       0.00       0.00       0.00
  obbt             :       0.00       0.00       0.00       0.00       0.00       0.00
  probing          :       0.04       0.00       0.04       0.00       0.00       0.00
  pseudoobj        :       0.05       0.00       0.00       0.05       0.00       0.00
  redcost          :       0.77       0.00       0.00       0.77       0.00       0.00
  rootredcost      :       0.01       0.00       0.00       0.01       0.00       0.00
  symmetry         :       0.00       0.00       0.00       0.00       0.00       0.00
  vbounds          :       0.03       0.00       0.00       0.03       0.00       0.00
Conflict Analysis  :       Time      Calls    Success    DomReds  Conflicts   Literals    Reconvs ReconvLits   Dualrays   Nonzeros   LP Iters   (pool size: [10000,10000])
  propagation      :       0.01         86         81          -        525      126.3          1        2.0          -          -          -
  infeasible LP    :       0.03         11         11          -         67      150.8          1        3.0         11      580.0          0
  bound exceed. LP :       0.35         69         40          -        321      218.3          1       39.0          0        0.0        360
  strong branching :       0.00          0          0          -          0        0.0          0        0.0          -          -          0
  pseudo solution  :       0.00          0          0          -          0        0.0          0        0.0          -          -          -
  applied globally :       0.11          -          -          0        733      115.3          -          -         11          -          -
  applied locally  :          -          -          -          0          0        0.0          -          -          0          -          -
Separators         :   ExecTime  SetupTime      Calls  RootCalls    Cutoffs    DomReds  FoundCuts ViaPoolAdd  DirectAdd    Applied ViaPoolApp  DirectApp      Conss
  cut pool         :       1.41          -        540          6          -          -       8767       8493          -          -          -          -          -    (maximal pool size:       3509)
  aggregation      :       1.89       0.00        263          3          0          0        623       2406         39        858        848         10          0
  > cmir           :          -          -          -          -          -          -          -        808         22        131        130          1          -
  > flowcover      :          -          -          -          -          -          -          -       1586          9        722        716          6          -
  > knapsackcover  :          -          -          -          -          -          -          -         12          8          5          2          3          -
  cgmip            :       0.00       0.00          0          0          0          0          0          0          0          0          0          0          0
  clique           :       0.15       0.00          3          3          0          0          4          3          0          2          2          0          0
  closecuts        :       0.00       0.00          0          0          0          0          0          0          0          0          0          0          0
  convexproj       :       0.00       0.00          0          0          0          0          0          0          0          0          0          0          0
  disjunctive      :       0.00       0.00          0          0          0          0          0          0          0          0          0          0          0
  eccuts           :       0.00       0.00          0          0          0          0          0          0          0          0          0          0          0
  gauge            :       0.00       0.00          0          0          0          0          0          0          0          0          0          0          0
  gomory           :      12.29       0.00        240          3          0          0       8635       5628       1030        686        637         49          0
  > gomorymi       :          -          -          -          -          -          -          -       3088        515        370        344         26          -
  > strongcg       :          -          -          -          -          -          -          -       2540        515        316        293         23          -
  impliedbounds    :       0.08       0.00        263          3          0          0          4         28          0         22         22          0          0
  interminor       :       0.00       0.00          0          0          0          0          0          0          0          0          0          0          0
  intobj           :       0.00       0.00          0          0          0          0          0          0          0          0          0          0          0
  mcf              :       0.01       0.00          1          1          0          0          0          0          0          0          0          0          0
  minor            :       0.00       0.00          0          0          0          0          0          0          0          0          0          0          0
  mixing           :       0.00       0.00        263          3          0          0          0          0          0          0          0          0          0
  oddcycle         :       0.00       0.00          0          0          0          0          0          0          0          0          0          0          0
  rapidlearning    :       8.12       0.00         42          1          0       2096          0          0          0          0          0          0          9
  rlt              :       0.00       0.00          3          3          0          0          0          0          0          0          0          0          0
  zerohalf         :       1.85       0.00        240          3          0          0        856        428        286        245         54        191          0
Cutselectors       :   ExecTime  SetupTime      Calls  RootCalls   Selected     Forced   Filtered  RootSelec   RootForc   RootFilt 
  hybrid           :       0.03       0.00        262          2       1809          5       7927          4          0          4
Pricers            :   ExecTime  SetupTime      Calls       Vars
  problem variables:       0.00          -          0          0
Branching Rules    :   ExecTime  SetupTime   BranchLP  BranchExt   BranchPS    Cutoffs    DomReds       Cuts      Conss   Children
  allfullstrong    :       0.00       0.00          0          0          0          0          0          0          0          0
  cloud            :       0.00       0.00          0          0          0          0          0          0          0          0
  distribution     :       0.00       0.00          0          0          0          0          0          0          0          0
  fullstrong       :       0.00       0.00          0          0          0          0          0          0          0          0
  inference        :       0.00       0.00          0          0          0          0          0          0          0          0
  leastinf         :       0.00       0.00          0          0          0          0          0          0          0          0
  lookahead        :       0.00       0.00          0          0          0          0          0          0          0          0
  mostinf          :       0.00       0.00          0          0          0          0          0          0          0          0
  multaggr         :       0.00       0.00          0          0          0          0          0          0          0          0
  nodereopt        :       0.00       0.00          0          0          0          0          0          0          0          0
  pscost           :       0.00       0.00          0          0          0          0          0          0          0          0
  random           :       0.00       0.00          0          0          0          0          0          0          0          0
  relpscost        :       1.17       0.00        645          0          0          0          0          0          0       1290
  vanillafullstrong:       0.00       0.00          0          0          0          0          0          0          0          0
Primal Heuristics  :   ExecTime  SetupTime      Calls      Found       Best
  LP solutions     :       0.00          -          -          0          0
  relax solutions  :       0.00          -          -          0          0
  pseudo solutions :       0.00          -          -          0          0
  strong branching :       0.00          -          -          0          0
  actconsdiving    :       0.00       0.00          0          0          0
  adaptivediving   :       0.47       0.00          5          0          0
  alns             :       0.54       0.00          4          0          0
  bound            :       0.00       0.00          0          0          0
  clique           :       0.07       0.00          1          0          0
  coefdiving       :       0.00       0.00          0          0          0
  completesol      :       0.00       0.00          0          0          0
  conflictdiving   :       0.37       0.00          4          1          1
  crossover        :       0.07       0.00          1          1          0
  dins             :       0.00       0.00          0          0          0
  distributiondivin:       0.74       0.00          3          0          0
  dps              :       0.00       0.00          0          0          0
  dualval          :       0.00       0.00          0          0          0
  farkasdiving     :       0.43       0.00          1          0          0
  feaspump         :       0.48       0.00          2          1          1
  fixandinfer      :       0.00       0.00          0          0          0
  fracdiving       :       0.16       0.00          4          1          1
  gins             :       0.02       0.00          0          0          0
  guideddiving     :       0.32       0.00          3          1          1
  indicator        :       0.00       0.00          0          0          0
  intdiving        :       0.00       0.00          0          0          0
  intshifting      :       0.00       0.00          0          0          0
  linesearchdiving :       0.26       0.00          3          0          0
  localbranching   :       0.00       0.00          0          0          0
  locks            :       0.04       0.00          1          0          0
  lpface           :       3.66       0.00          2          0          0
  mpec             :       0.00       0.00          0          0          0
  multistart       :       0.00       0.00          0          0          0
  mutation         :       0.00       0.00          0          0          0
  nlpdiving        :       0.00       0.00          0          0          0
  objpscostdiving  :       0.65       0.00          2          2          1
  octane           :       0.00       0.00          0          0          0
  ofins            :       0.00       0.00          0          0          0
  oneopt           :       0.03       0.00          6          0          0
  padm             :       0.00       0.00          0          0          0
  proximity        :       0.00       0.00          0          0          0
  pscostdiving     :       0.65       0.00          4          1          1
  randrounding     :       0.05       0.00         24          0          0
  rens             :       0.13       0.00          1          0          0
  reoptsols        :       0.00       0.00          0          0          0
  repair           :       0.00       0.00          0          0          0
  rins             :       0.07       0.00          1          0          0
  rootsoldiving    :       0.54       0.00          2          1          0
  rounding         :       0.21       0.00        388          0          0
  shiftandpropagate:       0.06       0.00          1          0          0
  shifting         :       0.70       0.00        210          0          0
  simplerounding   :       0.00       0.00          0          0          0
  subnlp           :       0.00       0.00          0          0          0
  trivial          :       0.01       0.00          2          0          0
  trivialnegation  :       0.00       0.00          0          0          0
  trustregion      :       0.00       0.00          0          0          0
  trysol           :       0.00       0.00          0          0          0
  twoopt           :       0.00       0.00          0          0          0
  undercover       :       0.00       0.00          0          0          0
  vbounds          :       0.19       0.00          1          0          0
  veclendiving     :       0.64       0.00          4          0          0
  zeroobj          :       0.00       0.00          0          0          0
  zirounding       :       0.04       0.00        644          0          0
  other solutions  :          -          -          -          0          -
LP                 :       Time      Calls Iterations  Iter/call   Iter/sec  Time-0-It Calls-0-It    ItLimit
  primal LP        :       3.68        118          0       0.00       0.00       3.68        118
  dual LP          :      12.87       1576     108772      78.59    8454.44       0.32        192
  lex dual LP      :       0.00          0          0       0.00          -
  barrier LP       :       0.00          0          0       0.00          -       0.00          0
  resolve instable :       0.00          0          0       0.00          -
  diving/probing LP:       3.85        244      31967     131.01    8308.49
  strong branching :       0.82         50       6020     120.40    7311.32          -          -          7
    (at root node) :          -         12       4860     405.00          -
  conflict analysis:       0.09         36        360      10.00    3834.03
B&B Tree           :
  number of runs   :          1
  nodes            :       1117 (645 internal, 472 leaves)
  feasible leaves  :          0
  infeas. leaves   :         42
  objective leaves :        430
  nodes (total)    :       1117 (645 internal, 472 leaves)
  nodes left       :          0
  max depth        :         21
  max depth (total):         21
  backtracks       :        264 (23.6%)
  early backtracks :          0 (0.0%)
  nodes exc. ref.  :          0 (0.0%)
  delayed cutoffs  :         24
  repropagations   :        125 (6724 domain reductions, 12 cutoffs)
  avg switch length:       3.91
  switching time   :       4.55
Root Node          :
  First LP value   : +1.60000000000000e+01
  First LP Iters   :        581 (8352.86 Iter/sec)
  First LP Time    :       0.07
  Final Dual Bound : +1.60000000000000e+01
  Final Root Iters :       1416
  Root LP Estimate : +1.62637387314091e+01
Solution           :
  Solutions found  :          9 (6 improvements)
  First Solution   : +2.86000000000000e+01   (in run 1, after 1 nodes, 1.17 seconds, depth 0, found by <feaspump>)
  Gap First Sol.   :      78.75 %
  Gap Last Sol.    :       0.86 %
  Primal Bound     : +1.66000000000000e+01   (in run 1, after 256 nodes, 35.62 seconds, depth 29, found by <conflictdiving>)
  Dual Bound       : +1.66000000000000e+01
  Gap              :       0.00 %
Integrals          :      Total       Avg%
  primal-dual      :     927.16      15.43
  primal-ref       :          -          - (not evaluated)
  dual-ref         :          -          - (not evaluated)
written solution information to file <results/final_miplib_symretope_if_extended_generating_set_cpx_v802__settings_final_nosym_norestarts__0__neos-498623.mps.gz.sol>
@04 1686649293
